p tw 36 40
1 2
2 13
3 4
4 5
5 29
6 7
7 8
8 9
8 25
9 10
10 11
11 12
12 14
13 24
14 15
15 16
16 17
17 18
18 19
19 20
20 21
21 22
22 23
23 29
24 31
25 26
26 27
26 29
27 28
28 29
29 30
31 32
31 36
32 33
33 34
33 36
34 35
35 36
35 6
36 3
